Geographic Exponential Decay
20 318 220 309 57 184 168 278 27 97 118 6 154 1 245 260 36 284 306 204 119
p edge 320 322
e 0 101 3.0
e 0 85 1.0
e 1 209 53.0
e 1 2 36.0
e 1 15 24.0
e 1 81 57.0
e 1 273 90.0
e 1 0 20.0
e 3 235 1.0
e 3 1 59.0
e 4 86 8.0
e 4 3 5.0
e 5 277 4.0
e 5 4 3.0
e 6 298 62.0
e 6 130 27.0
e 6 113 50.0
e 6 221 63.0
e 6 67 38.0
e 6 5 8.0
e 7 26 6.0
e 7 6 76.0
e 8 66 40.0
e 8 7 7.0
e 9 68 5.0
e 9 8 9.0
e 10 58 2.0
e 10 9 5.0
e 11 150 4.0
e 11 10 4.0
e 12 262 4.0
e 12 11 9.0
e 13 172 2.0
e 13 12 1.0
e 14 159 7.0
e 14 13 1.0
e 16 28 6.0
e 16 14 3.0
e 17 93 2.0
e 17 16 12.0
e 18 275 15.0
e 18 94 17.0
e 18 17 12.0
e 19 210 1.0
e 19 18 9.0
e 20 21 2.0
e 20 19 1.0
e 22 55 2.0
e 22 20 1.0
e 23 181 1.0
e 23 22 2.0
e 24 35 5.0
e 24 23 2.0
e 25 218 3.0
e 25 24 2.0
e 27 131 77.0
e 27 205 47.0
e 27 80 59.0
e 27 204 17.0
e 27 29 53.0
e 27 25 68.0
e 30 270 1.0
e 30 27 31.0
e 31 180 3.0
e 31 30 2.0
e 32 79 5.0
e 32 31 1.0
e 33 88 1.0
e 33 32 2.0
e 34 163 2.0
e 34 33 1.0
e 36 41 73.0
e 36 258 51.0
e 36 313 50.0
e 36 197 44.0
e 36 234 63.0
e 36 34 49.0
e 37 204 69.0
e 38 39 9.0
e 38 36 72.0
e 40 89 10.0
e 40 38 2.0
e 42 236 1.0
e 42 40 6.0
e 43 44 3.0
e 43 42 1.0
e 45 249 24.0
e 45 43 5.0
e 46 300 1.0
e 46 45 1.0
e 47 237 3.0
e 47 46 1.0
e 48 211 5.0
e 48 47 1.0
e 49 198 10.0
e 49 48 1.0
e 50 267 1.0
e 50 49 2.0
e 51 316 1.0
e 51 50 4.0
e 52 290 1.0
e 52 51 5.0
e 53 195 11.0
e 53 52 5.0
e 54 99 1.0
e 54 53 11.0
e 56 72 1.0
e 56 54 1.0
e 57 105 1.0
e 57 59 62.0
e 57 60 50.0
e 57 156 76.0
e 57 165 44.0
e 57 56 88.0
e 61 132 3.0
e 61 57 96.0
e 62 138 1.0
e 62 61 5.0
e 63 103 2.0
e 63 62 5.0
e 64 224 7.0
e 64 63 5.0
e 65 82 1.0
e 65 64 4.0
e 66 83 43.0
e 66 256 19.0
e 69 222 21.0
e 69 183 1.0
e 69 65 4.0
e 70 184 73.0
e 70 69 9.0
e 71 248 1.0
e 71 70 1.0
e 73 166 6.0
e 73 71 1.0
e 74 164 2.0
e 74 73 2.0
e 75 76 10.0
e 75 77 20.0
e 75 74 2.0
e 76 114 9.0
e 78 136 1.0
e 78 75 13.0
e 84 249 25.0
e 87 90 10.0
e 87 193 20.0
e 87 78 24.0
e 91 92 1.0
e 91 87 17.0
e 95 314 1.0
e 95 91 3.0
e 96 127 2.0
e 96 95 2.0
e 97 121 13.0
e 97 98 58.0
e 97 100 31.0
e 97 173 81.0
e 97 281 97.0
e 97 96 86.0
e 102 318 59.0
e 102 97 46.0
e 104 230 6.0
e 104 194 23.0
e 104 102 19.0
e 106 107 12.0
e 106 148 19.0
e 106 104 7.0
e 108 109 1.0
e 108 106 19.0
e 110 302 2.0
e 110 108 10.0
e 111 259 18.0
e 111 110 4.0
e 112 274 5.0
e 112 111 1.0
e 115 188 1.0
e 115 112 4.0
e 116 117 1.0
e 116 115 1.0
e 118 119 10.0
e 118 282 65.0
e 118 120 46.0
e 118 308 80.0
e 118 122 80.0
e 119 266 10.0
e 119 123 13.0
e 119 133 80.0
e 119 238 61.0
e 124 125 1.0
e 124 116 1.0
e 126 128 9.0
e 126 124 4.0
e 129 196 5.0
e 129 126 5.0
e 134 137 21.0
e 134 135 23.0
e 134 129 4.0
e 137 139 24.0
e 140 241 10.0
e 140 134 17.0
e 141 142 1.0
e 141 140 1.0
e 142 143 34.0
e 142 294 32.0
e 144 145 21.0
e 144 204 24.0
e 146 278 49.0
e 147 149 3.0
e 147 315 1.0
e 147 141 16.0
e 151 174 7.0
e 151 147 1.0
e 152 153 4.0
e 152 151 1.0
e 154 155 95.0
e 154 157 72.0
e 154 216 11.0
e 154 167 53.0
e 154 175 63.0
e 154 152 53.0
e 158 160 1.0
e 158 154 8.0
e 161 162 1.0
e 161 158 1.0
e 168 303 16.0
e 168 318 20.0
e 168 250 81.0
e 168 268 2.0
e 168 169 16.0
e 170 171 11.0
e 170 161 8.0
e 176 276 2.0
e 176 170 4.0
e 177 178 14.0
e 177 176 1.0
e 178 225 16.0
e 179 182 1.0
e 179 177 8.0
e 184 185 23.0
e 184 186 15.0
e 184 187 6.0
e 184 226 37.0
e 189 305 8.0
e 189 179 4.0
e 190 291 1.0
e 190 189 1.0
e 191 192 9.0
e 191 261 49.0
e 191 207 7.0
e 191 190 20.0
e 199 271 1.0
e 199 191 15.0
e 200 278 36.0
e 201 202 2.0
e 201 199 4.0
e 203 251 6.0
e 203 201 3.0
e 204 238 11.0
e 204 206 59.0
e 208 212 6.0
e 208 203 10.0
e 213 214 1.0
e 213 208 5.0
e 215 252 1.0
e 215 213 5.0
e 217 219 2.0
e 217 215 2.0
e 220 223 37.0
e 220 253 37.0
e 220 272 24.0
e 220 226 97.0
e 220 228 4.0
e 227 229 3.0
e 227 217 1.0
e 231 254 1.0
e 231 227 2.0
e 232 233 2.0
e 232 231 1.0
e 239 240 22.0
e 239 232 1.0
e 240 242 17.0
e 243 317 1.0
e 243 239 2.0
e 244 245 13.0
e 244 243 9.0
e 245 246 67.0
e 245 247 87.0
e 245 255 51.0
e 245 257 59.0
e 259 260 7.0
e 260 263 68.0
e 260 264 59.0
e 260 265 20.0
e 260 269 92.0
e 278 279 26.0
e 278 280 71.0
e 278 282 99.0
e 280 283 12.0
e 284 285 62.0
e 284 286 92.0
e 284 287 69.0
e 284 288 7.0
e 284 289 72.0
e 284 244 86.0
e 287 292 9.0
e 292 293 12.0
e 295 311 2.0
e 295 284 85.0
e 296 297 3.0
e 296 295 1.0
e 299 301 4.0
e 299 296 1.0
e 304 305 14.0
e 306 307 37.0
e 306 309 15.0
e 306 310 47.0
e 306 312 23.0
e 306 318 28.0
e 307 309 31.0
e 309 318 49.0
e 309 319 1.0
e 318 319 38.0
